TYPE : Vertex Cover
DIMENSION: 27
EDGE_DATA_SECTION:
0 6
0 10
0 11
0 23
0 25
1 9
1 13
1 21
2 14
2 19
2 22
2 23
3 7
3 11
3 14
4 6
4 7
4 12
4 18
4 22
4 24
5 6
5 11
5 12
5 15
5 20
5 23
6 8
6 23
7 8
7 9
7 22
7 24
7 26
8 9
8 19
8 20
9 20
10 13
10 20
11 16
11 17
11 21
11 25
12 23
12 24
13 18
13 20
13 21
14 16
15 16
15 19
15 21
15 23
16 18
16 19
16 20
17 25
18 19
18 24
20 25
21 23
21 24
21 25
-1
VERTEX_DEGREE:
5.0 3.0 4.0 3.0 6.0 6.0 5.0 7.0 5.0 4.0 3.0 7.0 4.0 5.0 3.0 5.0 6.0 2.0 5.0 5.0 7.0 7.0 3.0 7.0 5.0 5.0 1.0
VERTEX_COVER:
6 7 9 10 11 12 13 14 15 18 19 20 21 22 23 24 25
EOF
